DIMACS2
160 537 453 472 72 489 354 412 133 637 274 79 203 295 356 602 114 222 180 566 431 344 2 501 129 585 211 458 132 558 287 197 298 614 267 184 147 228 52 331 4 467 115 625 413 303 580 616 635 224 456 587 252 513 54 7 546 502 361 94 43 396 362 534 208 164 579 123 76 302 108 498 38 552 118 615 29 499 317 373 217 545 30 564 316 207 110 273 111 378 360 385 364 486 628 578 633 436 283 106 335 247 87 47 407 258 216 318 223 390 601 126 497 179 321 421 468 454 20 609 371 75 234 154 221 266 259 603 447 237 416 187 297 167 570 93 365 437 97 196 213 535 638 256 85 134 152 117 209 455 67 470 166 563 276 82 411 474 549 584 389
p edge 640 2544
e 0 216 39.0
e 0 615 42.0
e 0 587 3.0
e 0 420 1.0
e 1 550 1.0
e 1 370 1.0
e 1 270 1.0
e 1 363 1.0
e 2 356 27.0
e 2 292 44.0
e 2 229 25.0
e 2 476 14.0
e 3 527 2.0
e 3 467 41.0
e 3 150 1.0
e 3 77 1.0
e 4 491 13.0
e 4 321 36.0
e 4 361 16.0
e 4 195 34.0
e 5 99 1.0
e 5 329 1.0
e 5 241 1.0
e 5 156 1.0
e 6 54 7.0
e 6 414 1.0
e 6 57 1.0
e 6 519 1.0
e 7 289 34.0
e 7 104 35.0
e 7 544 17.0
e 7 329 11.0
e 8 196 23.0
e 8 525 1.0
e 8 92 1.0
e 8 573 2.0
e 9 479 1.0
e 9 117 14.0
e 9 449 1.0
e 9 231 1.0
e 10 393 1.0
e 10 526 2.0
e 10 622 2.0
e 10 191 1.0
e 11 574 2.0
e 11 318 43.0
e 11 482 1.0
e 11 520 2.0
e 12 66 1.0
e 12 46 1.0
e 12 335 7.0
e 12 272 1.0
e 13 23 1.0
e 13 414 1.0
e 13 597 2.0
e 13 371 37.0
e 14 520 1.0
e 14 377 1.0
e 14 52 11.0
e 14 113 1.0
e 15 17 2.0
e 15 282 1.0
e 15 167 3.0
e 15 545 45.0
e 16 203 42.0
e 16 518 1.0
e 16 80 2.0
e 16 62 1.0
e 17 341 1.0
e 17 229 2.0
e 17 127 1.0
e 17 503 1.0
e 18 634 1.0
e 18 300 1.0
e 18 199 1.0
e 18 626 1.0
e 19 213 6.0
e 19 304 1.0
e 19 273 37.0
e 19 632 1.0
e 20 406 28.0
e 20 328 29.0
e 20 391 8.0
e 20 330 21.0
e 21 195 1.0
e 21 207 11.0
e 21 441 1.0
e 21 273 33.0
e 22 378 16.0
e 22 287 20.0
e 22 309 1.0
e 22 48 2.0
e 23 111 34.0
e 23 461 1.0
e 23 609 15.0
e 23 310 1.0
e 24 559 1.0
e 24 92 1.0
e 24 233 1.0
e 24 596 1.0
e 25 637 23.0
e 25 445 1.0
e 25 38 25.0
e 25 159 1.0
e 26 42 1.0
e 26 169 1.0
e 26 479 1.0
e 26 121 1.0
e 27 163 1.0
e 27 75 44.0
e 27 208 32.0
e 27 465 1.0
e 28 324 2.0
e 28 382 1.0
e 28 583 1.0
e 28 554 1.0
e 29 402 30.0
e 29 441 49.0
e 29 468 28.0
e 29 217 29.0
e 30 76 26.0
e 30 68 8.0
e 30 255 2.0
e 30 165 14.0
e 31 79 34.0
e 31 381 1.0
e 31 512 1.0
e 31 194 1.0
e 32 469 2.0
e 32 245 1.0
e 32 506 1.0
e 32 78 1.0
e 33 109 2.0
e 33 487 1.0
e 33 396 13.0
e 33 522 2.0
e 34 52 42.0
e 34 142 2.0
e 34 245 1.0
e 34 585 28.0
e 35 152 34.0
e 35 449 1.0
e 35 40 1.0
e 36 55 1.0
e 36 399 1.0
e 36 288 1.0
e 36 326 1.0
e 37 6 1.0
e 37 498 40.0
e 37 411 31.0
e 37 548 1.0
e 38 178 6.0
e 38 219 24.0
e 38 498 39.0
e 38 36 21.0
e 39 45 1.0
e 39 456 47.0
e 39 223 26.0
e 39 307 1.0
e 40 53 2.0
e 40 106 38.0
e 40 151 2.0
e 40 519 1.0
e 41 496 2.0
e 41 278 1.0
e 41 590 1.0
e 41 411 34.0
e 42 79 8.0
e 42 210 1.0
e 42 544 1.0
e 42 220 2.0
e 43 372 19.0
e 43 582 10.0
e 43 212 4.0
e 43 332 38.0
e 44 108 47.0
e 44 246 1.0
e 44 231 1.0
e 44 287 41.0
e 45 140 1.0
e 45 369 2.0
e 45 144 1.0
e 45 133 39.0
e 46 371 7.0
e 46 69 1.0
e 46 185 2.0
e 46 85 28.0
e 47 518 22.0
e 47 281 18.0
e 47 496 43.0
e 47 541 1.0
e 48 422 2.0
e 48 263 1.0
e 48 121 1.0
e 48 256 9.0
e 49 430 1.0
e 49 161 1.0
e 49 346 1.0
e 49 407 48.0
e 50 615 30.0
e 50 337 1.0
e 50 483 1.0
e 50 552 45.0
e 51 412 5.0
e 51 158 2.0
e 51 556 1.0
e 51 623 1.0
e 52 368 6.0
e 52 468 9.0
e 52 418 22.0
e 52 25 28.0
e 53 253 1.0
e 53 268 1.0
e 53 557 1.0
e 53 103 2.0
e 54 527 8.0
e 54 481 6.0
e 54 387 20.0
e 54 613 40.0
e 55 525 3.0
e 55 178 2.0
e 55 298 27.0
e 55 235 2.0
e 56 411 46.0
e 56 396 31.0
e 56 270 1.0
e 56 111 20.0
e 57 475 2.0
e 57 191 1.0
e 57 497 43.0
e 57 594 2.0
e 58 338 1.0
e 58 85 35.0
e 58 31 1.0
e 58 271 1.0
e 59 315 1.0
e 59 292 1.0
e 59 456 31.0
e 59 297 48.0
e 60 423 1.0
e 60 403 1.0
e 60 566 30.0
e 60 519 1.0
e 61 201 1.0
e 61 90 1.0
e 61 487 2.0
e 61 65 1.0
e 62 320 1.0
e 62 295 29.0
e 62 587 29.0
e 62 8 1.0
e 63 535 7.0
e 63 295 11.0
e 63 619 2.0
e 63 528 1.0
e 64 409 1.0
e 64 35 1.0
e 64 484 1.0
e 64 396 22.0
e 65 30 13.0
e 65 77 1.0
e 65 502 37.0
e 65 407 29.0
e 66 119 1.0
e 66 608 1.0
e 66 9 1.0
e 66 493 1.0
e 67 35 34.0
e 67 564 20.0
e 67 620 11.0
e 67 239 43.0
e 68 14 1.0
e 68 263 1.0
e 68 498 40.0
e 68 48 1.0
e 69 601 13.0
e 69 79 25.0
e 69 523 1.0
e 69 632 2.0
e 70 381 1.0
e 70 554 1.0
e 70 205 1.0
e 70 243 1.0
e 71 597 1.0
e 71 319 2.0
e 71 492 1.0
e 71 472 27.0
e 72 103 44.0
e 72 282 14.0
e 72 20 7.0
e 72 152 22.0
e 73 83 1.0
e 73 82 23.0
e 73 196 15.0
e 73 234 13.0
e 74 177 1.0
e 74 0 1.0
e 74 344 8.0
e 74 417 1.0
e 75 127 40.0
e 75 362 6.0
e 75 361 27.0
e 75 12 4.0
e 76 589 40.0
e 76 538 42.0
e 76 494 9.0
e 76 282 35.0
e 77 169 1.0
e 77 619 1.0
e 77 195 1.0
e 77 307 1.0
e 78 593 1.0
e 78 226 1.0
e 78 209 31.0
e 78 414 1.0
e 79 246 19.0
e 79 81 41.0
e 79 322 38.0
e 79 236 20.0
e 80 435 1.0
e 80 206 1.0
e 80 473 1.0
e 80 541 1.0
e 81 297 3.0
e 81 289 1.0
e 81 570 18.0
e 81 200 1.0
e 82 476 20.0
e 82 410 16.0
e 82 174 10.0
e 82 11 40.0
e 83 198 1.0
e 83 603 44.0
e 83 567 1.0
e 83 287 33.0
e 84 319 2.0
e 84 528 1.0
e 84 618 1.0
e 84 260 1.0
e 85 452 36.0
e 85 399 39.0
e 85 15 48.0
e 85 52 25.0
e 86 189 1.0
e 86 619 2.0
e 86 374 2.0
e 86 310 2.0
e 87 567 16.0
e 87 605 6.0
e 87 536 4.0
e 87 630 32.0
e 88 11 1.0
e 88 210 1.0
e 88 584 15.0
e 88 328 1.0
e 89 474 36.0
e 89 91 1.0
e 89 471 1.0
e 89 157 1.0
e 90 472 39.0
e 90 111 17.0
e 90 323 1.0
e 90 497 30.0
e 91 322 3.0
e 91 499 13.0
e 91 90 1.0
e 91 324 2.0
e 92 74 1.0
e 92 308 1.0
e 92 356 26.0
e 92 449 2.0
e 93 520 46.0
e 93 637 43.0
e 93 279 7.0
e 93 473 46.0
e 94 563 42.0
e 94 388 15.0
e 94 461 28.0
e 94 230 6.0
e 95 80 1.0
e 95 481 1.0
e 95 220 3.0
e 95 313 3.0
e 96 119 2.0
e 96 351 1.0
e 96 586 2.0
e 96 350 1.0
e 97 295 15.0
e 97 344 35.0
e 97 373 31.0
e 97 421 8.0
e 97 628 35.0
e 98 572 1.0
e 98 443 1.0
e 98 132 14.0
e 98 445 1.0
e 99 313 2.0
e 99 244 2.0
e 99 57 2.0
e 99 526 3.0
e 100 309 1.0
e 100 185 2.0
e 100 336 1.0
e 100 90 1.0
e 101 507 1.0
e 101 383 1.0
e 101 169 1.0
e 101 37 1.0
e 102 122 1.0
e 102 130 1.0
e 102 589 1.0
e 102 73 1.0
e 103 544 1.0
e 103 523 1.0
e 103 405 2.0
e 103 278 2.0
e 104 451 1.0
e 104 530 1.0
e 104 228 48.0
e 104 78 1.0
e 105 141 1.0
e 105 263 1.0
e 105 235 1.0
e 105 236 1.0
e 106 541 21.0
e 106 78 45.0
e 106 507 24.0
e 106 269 7.0
e 107 587 39.0
e 107 486 49.0
e 107 419 1.0
e 107 46 1.0
e 108 515 4.0
e 108 295 24.0
e 108 343 37.0
e 108 426 29.0
e 109 406 1.0
e 109 152 29.0
e 109 267 40.0
e 109 411 16.0
e 110 325 28.0
e 110 510 37.0
e 110 620 42.0
e 110 322 31.0
e 111 557 23.0
e 111 14 39.0
e 111 306 38.0
e 111 456 28.0
e 112 509 1.0
e 112 542 1.0
e 112 45 1.0
e 112 69 1.0
e 113 550 1.0
e 113 634 1.0
e 113 601 18.0
e 113 277 1.0
e 114 4 37.0
e 114 238 12.0
e 114 227 29.0
e 114 308 20.0
e 115 336 31.0
e 115 131 32.0
e 115 314 40.0
e 115 279 35.0
e 116 155 1.0
e 116 435 2.0
e 116 326 1.0
e 116 20 41.0
e 117 138 41.0
e 117 391 18.0
e 117 265 18.0
e 117 600 2.0
e 118 402 10.0
e 118 112 47.0
e 118 360 43.0
e 118 300 4.0
e 119 76 18.0
e 119 598 1.0
e 119 580 9.0
e 119 579 2.0
e 120 213 12.0
e 120 283 33.0
e 120 33 1.0
e 120 61 1.0
e 121 482 2.0
e 121 33 2.0
e 121 160 1.0
e 121 147 32.0
e 122 550 1.0
e 122 615 37.0
e 122 187 2.0
e 122 377 1.0
e 123 491 5.0
e 123 163 11.0
e 123 333 25.0
e 123 131 36.0
e 124 172 2.0
e 124 217 6.0
e 124 358 2.0
e 124 68 1.0
e 125 173 1.0
e 125 599 1.0
e 125 265 1.0
e 125 308 1.0
e 126 58 31.0
e 126 508 15.0
e 126 518 37.0
e 126 419 7.0
e 127 48 2.0
e 127 116 1.0
e 127 633 2.0
e 127 191 1.0
e 128 158 1.0
e 128 540 2.0
e 128 391 1.0
e 128 499 48.0
e 129 64 5.0
e 129 468 25.0
e 129 192 29.0
e 129 268 12.0
e 130 520 1.0
e 130 304 1.0
e 130 189 2.0
e 130 580 13.0
e 131 243 1.0
e 131 44 1.0
e 131 399 1.0
e 131 183 1.0
e 132 137 35.0
e 132 184 8.0
e 132 558 19.0
e 132 164 40.0
e 133 311 30.0
e 133 469 35.0
e 133 47 9.0
e 134 440 17.0
e 134 7 20.0
e 134 464 7.0
e 134 508 47.0
e 135 162 1.0
e 135 18 1.0
e 135 394 1.0
e 135 548 1.0
e 136 624 1.0
e 136 95 1.0
e 136 222 42.0
e 136 69 1.0
e 137 401 1.0
e 137 635 9.0
e 137 281 2.0
e 137 501 48.0
e 138 81 1.0
e 138 211 21.0
e 138 199 1.0
e 138 566 7.0
e 139 558 42.0
e 139 308 1.0
e 139 273 16.0
e 139 450 1.0
e 140 523 1.0
e 140 426 1.0
e 140 436 44.0
e 140 214 1.0
e 141 240 2.0
e 141 11 1.0
e 141 542 1.0
e 141 600 1.0
e 142 313 1.0
e 142 194 1.0
e 142 304 1.0
e 142 501 1.0
e 143 33 1.0
e 143 168 1.0
e 143 62 1.0
e 143 96 2.0
e 144 506 1.0
e 144 637 46.0
e 144 483 1.0
e 144 313 2.0
e 145 379 1.0
e 145 67 34.0
e 145 546 30.0
e 145 617 1.0
e 146 254 1.0
e 146 534 6.0
e 146 66 1.0
e 146 150 3.0
e 147 602 48.0
e 147 203 10.0
e 147 140 16.0
e 147 384 15.0
e 148 170 1.0
e 148 237 49.0
e 148 391 1.0
e 148 25 1.0
e 149 80 2.0
e 149 341 1.0
e 149 458 30.0
e 149 421 26.0
e 150 535 46.0
e 150 517 1.0
e 150 389 40.0
e 150 394 1.0
e 151 331 13.0
e 151 466 1.0
e 151 392 1.0
e 151 54 3.0
e 152 497 9.0
e 152 423 38.0
e 152 502 5.0
e 153 591 1.0
e 153 384 1.0
e 153 612 1.0
e 153 586 1.0
e 154 85 43.0
e 154 247 38.0
e 154 167 31.0
e 154 373 1.0
e 155 428 1.0
e 155 336 3.0
e 155 459 1.0
e 155 37 1.0
e 156 70 1.0
e 156 579 45.0
e 156 521 1.0
e 156 571 1.0
e 157 57 1.0
e 157 241 1.0
e 157 389 13.0
e 157 155 1.0
e 158 557 1.0
e 158 169 1.0
e 158 397 1.0
e 158 96 2.0
e 159 33 2.0
e 159 91 1.0
e 159 134 42.0
e 159 108 12.0
e 160 398 1.0
e 160 115 31.0
e 160 460 1.0
e 160 318 33.0
e 161 38 33.0
e 161 276 43.0
e 161 260 1.0
e 161 254 1.0
e 162 467 34.0
e 162 75 34.0
e 162 52 32.0
e 162 558 1.0
e 163 47 39.0
e 163 283 34.0
e 163 602 17.0
e 163 372 1.0
e 164 45 8.0
e 164 187 45.0
e 164 227 20.0
e 164 272 1.0
e 165 448 1.0
e 165 44 3.0
e 165 63 1.0
e 165 66 1.0
e 166 193 9.0
e 166 81 46.0
e 166 56 38.0
e 166 7 38.0
e 167 471 36.0
e 167 549 17.0
e 167 493 24.0
e 167 551 39.0
e 168 78 1.0
e 168 163 1.0
e 168 468 31.0
e 168 191 1.0
e 169 513 42.0
e 169 461 1.0
e 169 480 2.0
e 169 222 44.0
e 170 260 1.0
e 170 523 2.0
e 170 110 12.0
e 170 265 2.0
e 171 471 2.0
e 171 554 1.0
e 171 315 2.0
e 171 167 28.0
e 172 204 1.0
e 172 408 1.0
e 172 605 1.0
e 172 80 1.0
e 173 177 1.0
e 173 583 1.0
e 173 83 1.0
e 173 25 1.0
e 174 188 1.0
e 174 524 2.0
e 174 61 1.0
e 174 129 31.0
e 175 31 2.0
e 175 306 1.0
e 175 81 2.0
e 175 386 1.0
e 176 462 1.0
e 176 182 2.0
e 176 484 1.0
e 176 496 1.0
e 177 467 21.0
e 177 453 43.0
e 177 166 40.0
e 177 631 1.0
e 178 149 1.0
e 178 569 1.0
e 178 51 3.0
e 178 69 1.0
e 179 225 2.0
e 179 166 45.0
e 179 351 27.0
e 179 370 33.0
e 180 592 19.0
e 180 412 13.0
e 180 418 17.0
e 180 117 31.0
e 181 79 49.0
e 181 592 1.0
e 181 449 1.0
e 181 619 1.0
e 182 282 1.0
e 182 553 1.0
e 182 89 1.0
e 182 538 1.0
e 183 15 1.0
e 183 362 21.0
e 183 348 1.0
e 183 228 14.0
e 184 128 17.0
e 184 81 21.0
e 184 197 7.0
e 184 55 47.0
e 185 121 1.0
e 185 17 2.0
e 185 609 35.0
e 185 617 2.0
e 186 182 1.0
e 186 451 2.0
e 186 49 2.0
e 186 225 1.0
e 187 129 48.0
e 187 493 18.0
e 187 341 41.0
e 187 584 20.0
e 188 483 1.0
e 188 209 13.0
e 188 420 2.0
e 188 363 1.0
e 189 580 17.0
e 189 245 1.0
e 189 565 2.0
e 189 435 1.0
e 190 460 1.0
e 190 276 23.0
e 190 277 1.0
e 190 571 1.0
e 191 617 1.0
e 191 491 1.0
e 191 256 31.0
e 192 555 2.0
e 192 158 1.0
e 192 317 14.0
e 192 519 1.0
e 193 352 1.0
e 193 554 3.0
e 193 253 2.0
e 193 322 2.0
e 194 291 1.0
e 194 364 31.0
e 194 516 1.0
e 194 148 1.0
e 195 535 24.0
e 195 237 28.0
e 195 400 2.0
e 195 618 1.0
e 196 95 46.0
e 196 338 49.0
e 196 265 20.0
e 196 467 18.0
e 197 109 40.0
e 197 257 16.0
e 197 381 40.0
e 197 29 13.0
e 198 342 1.0
e 198 482 1.0
e 198 625 13.0
e 198 471 1.0
e 199 217 20.0
e 199 482 1.0
e 199 417 1.0
e 199 38 41.0
e 200 371 47.0
e 200 51 1.0
e 200 75 27.0
e 200 474 20.0
e 201 492 1.0
e 201 128 1.0
e 201 532 1.0
e 201 376 1.0
e 202 64 1.0
e 202 430 1.0
e 202 437 41.0
e 202 77 1.0
e 203 359 12.0
e 203 253 6.0
e 203 441 21.0
e 203 112 35.0
e 204 560 1.0
e 204 519 2.0
e 204 28 1.0
e 204 244 1.0
e 205 365 25.0
e 205 457 1.0
e 205 291 1.0
e 205 429 1.0
e 206 15 1.0
e 206 453 15.0
e 206 492 1.0
e 206 374 2.0
e 207 565 49.0
e 207 360 22.0
e 207 258 18.0
e 207 626 13.0
e 208 483 8.0
e 208 316 34.0
e 208 531 14.0
e 208 632 37.0
e 209 601 9.0
e 209 387 43.0
e 209 143 49.0
e 209 114 23.0
e 210 222 8.0
e 210 221 29.0
e 210 179 12.0
e 210 83 1.0
e 211 612 33.0
e 211 307 20.0
e 211 108 43.0
e 211 391 32.0
e 212 472 23.0
e 212 439 1.0
e 212 39 1.0
e 212 204 1.0
e 213 609 31.0
e 213 310 32.0
e 213 599 4.0
e 213 285 31.0
e 214 198 1.0
e 214 62 1.0
e 214 25 1.0
e 214 486 28.0
e 215 236 1.0
e 215 137 1.0
e 215 45 1.0
e 215 400 1.0
e 216 468 11.0
e 216 24 46.0
e 216 174 25.0
e 216 295 10.0
e 217 167 39.0
e 217 544 49.0
e 217 34 4.0
e 217 461 9.0
e 218 239 1.0
e 218 384 2.0
e 218 118 19.0
e 218 441 1.0
e 219 509 1.0
e 219 115 9.0
e 219 71 1.0
e 219 465 1.0
e 220 204 2.0
e 220 420 2.0
e 220 520 2.0
e 220 389 7.0
e 221 462 17.0
e 221 375 1.0
e 221 572 23.0
e 221 431 28.0
e 222 100 36.0
e 222 148 2.0
e 222 310 49.0
e 222 506 31.0
e 223 80 17.0
e 223 74 4.0
e 223 224 25.0
e 223 104 38.0
e 224 277 10.0
e 224 530 16.0
e 224 167 37.0
e 224 156 31.0
e 225 465 1.0
e 225 245 1.0
e 225 303 11.0
e 225 171 1.0
e 226 602 25.0
e 226 75 23.0
e 226 183 1.0
e 226 446 1.0
e 227 266 22.0
e 227 364 39.0
e 227 296 2.0
e 227 295 42.0
e 228 494 2.0
e 228 490 27.0
e 228 431 24.0
e 228 157 26.0
e 229 230 2.0
e 229 235 3.0
e 229 166 41.0
e 229 523 1.0
e 230 282 2.0
e 230 64 1.0
e 230 441 1.0
e 230 429 1.0
e 231 511 1.0
e 231 130 1.0
e 231 96 1.0
e 231 375 2.0
e 232 407 11.0
e 232 256 12.0
e 232 519 1.0
e 232 34 1.0
e 233 341 1.0
e 233 634 1.0
e 233 499 3.0
e 233 114 43.0
e 234 99 31.0
e 234 413 41.0
e 234 231 6.0
e 234 408 23.0
e 235 32 1.0
e 235 57 2.0
e 235 121 1.0
e 235 10 1.0
e 236 512 1.0
e 236 41 1.0
e 236 135 1.0
e 236 470 18.0
e 237 128 4.0
e 237 466 8.0
e 237 235 25.0
e 237 337 20.0
e 238 279 1.0
e 238 153 1.0
e 238 252 3.0
e 238 597 1.0
e 239 20 25.0
e 239 554 1.0
e 239 337 1.0
e 239 420 1.0
e 240 552 27.0
e 240 199 1.0
e 240 505 2.0
e 240 288 1.0
e 241 484 2.0
e 241 611 2.0
e 241 333 1.0
e 241 554 1.0
e 242 37 1.0
e 242 95 1.0
e 242 257 2.0
e 242 546 3.0
e 243 230 1.0
e 243 600 1.0
e 243 428 1.0
e 243 193 1.0
e 244 233 1.0
e 244 478 1.0
e 244 2 42.0
e 244 571 2.0
e 245 240 1.0
e 245 162 1.0
e 245 216 17.0
e 245 4 9.0
e 246 228 10.0
e 246 40 1.0
e 246 322 1.0
e 246 17 1.0
e 247 304 1.0
e 247 8 2.0
e 247 20 28.0
e 247 496 15.0
e 248 450 1.0
e 248 365 43.0
e 248 158 1.0
e 248 349 1.0
e 249 480 1.0
e 249 145 1.0
e 249 591 1.0
e 249 626 1.0
e 250 35 1.0
e 250 603 28.0
e 250 335 34.0
e 250 52 45.0
e 251 384 1.0
e 251 554 1.0
e 251 320 1.0
e 251 402 1.0
e 252 366 31.0
e 252 504 34.0
e 252 159 14.0
e 252 339 8.0
e 253 474 35.0
e 253 603 45.0
e 253 413 6.0
e 253 339 1.0
e 254 361 13.0
e 254 201 1.0
e 254 526 1.0
e 254 513 34.0
e 255 35 1.0
e 255 332 2.0
e 255 390 30.0
e 255 262 2.0
e 256 496 1.0
e 256 541 16.0
e 256 617 40.0
e 256 592 42.0
e 257 617 1.0
e 257 598 2.0
e 257 353 1.0
e 257 300 2.0
e 258 446 15.0
e 258 271 31.0
e 258 291 1.0
e 258 527 36.0
e 259 278 40.0
e 259 511 19.0
e 259 266 42.0
e 259 492 22.0
e 260 394 1.0
e 260 594 1.0
e 260 32 1.0
e 260 329 1.0
e 261 516 1.0
e 261 188 1.0
e 261 21 1.0
e 261 358 1.0
e 262 23 1.0
e 262 355 2.0
e 262 157 1.0
e 262 279 1.0
e 263 165 1.0
e 263 62 1.0
e 263 397 1.0
e 263 197 41.0
e 264 627 1.0
e 264 301 1.0
e 264 524 2.0
e 264 120 1.0
e 265 586 1.0
e 265 62 1.0
e 265 436 18.0
e 265 350 2.0
e 266 202 42.0
e 266 132 2.0
e 266 35 35.0
e 266 566 18.0
e 267 617 49.0
e 267 269 22.0
e 267 305 7.0
e 267 261 49.0
e 268 373 17.0
e 268 492 1.0
e 268 222 18.0
e 268 106 46.0
e 269 54 44.0
e 269 348 1.0
e 269 207 43.0
e 269 569 1.0
e 270 500 1.0
e 270 224 39.0
e 270 513 24.0
e 270 387 1.0
e 271 615 21.0
e 271 616 33.0
e 271 355 1.0
e 271 66 1.0
e 272 425 2.0
e 272 234 34.0
e 272 45 1.0
e 272 529 2.0
e 273 546 23.0
e 273 217 26.0
e 273 395 34.0
e 273 236 35.0
e 274 564 44.0
e 274 466 11.0
e 274 623 33.0
e 274 364 49.0
e 275 340 2.0
e 275 19 1.0
e 275 63 1.0
e 275 161 1.0
e 276 195 19.0
e 276 492 18.0
e 276 323 6.0
e 276 86 46.0
e 277 562 1.0
e 277 72 20.0
e 277 281 2.0
e 277 155 1.0
e 278 242 2.0
e 278 483 1.0
e 278 376 1.0
e 278 338 1.0
e 279 379 1.0
e 279 234 13.0
e 279 189 2.0
e 279 284 1.0
e 280 328 1.0
e 280 139 1.0
e 280 483 1.0
e 280 126 38.0
e 281 190 1.0
e 281 171 1.0
e 281 40 2.0
e 281 479 2.0
e 282 448 1.0
e 282 270 1.0
e 282 316 8.0
e 282 23 1.0
e 283 563 22.0
e 283 501 22.0
e 283 584 40.0
e 283 617 49.0
e 284 519 1.0
e 284 400 2.0
e 284 90 1.0
e 284 136 1.0
e 285 130 1.0
e 285 236 1.0
e 285 388 2.0
e 285 14 1.0
e 286 473 1.0
e 286 337 1.0
e 286 87 37.0
e 286 359 1.0
e 287 407 10.0
e 287 586 47.0
e 287 598 36.0
e 287 594 43.0
e 288 42 1.0
e 288 79 29.0
e 288 14 1.0
e 288 52 25.0
e 289 263 2.0
e 289 179 1.0
e 289 417 2.0
e 289 490 3.0
e 290 584 27.0
e 290 10 1.0
e 290 595 1.0
e 290 136 2.0
e 291 527 1.0
e 291 404 1.0
e 291 118 41.0
e 291 303 8.0
e 292 164 1.0
e 292 195 1.0
e 292 23 1.0
e 292 483 1.0
e 293 443 2.0
e 293 285 1.0
e 293 113 2.0
e 293 437 38.0
e 294 275 1.0
e 294 124 1.0
e 294 241 1.0
e 294 586 1.0
e 295 61 16.0
e 295 394 21.0
e 295 374 46.0
e 295 2 19.0
e 296 254 1.0
e 296 408 2.0
e 296 67 10.0
e 296 219 1.0
e 297 439 27.0
e 297 371 19.0
e 297 186 32.0
e 297 147 45.0
e 298 623 18.0
e 298 470 27.0
e 298 46 36.0
e 298 536 10.0
e 299 438 1.0
e 299 141 1.0
e 299 586 1.0
e 299 233 1.0
e 300 273 45.0
e 300 88 1.0
e 300 536 1.0
e 301 70 1.0
e 301 512 1.0
e 301 606 1.0
e 301 165 2.0
e 302 50 22.0
e 302 541 26.0
e 302 205 18.0
e 302 60 32.0
e 303 90 40.0
e 303 452 18.0
e 303 635 33.0
e 303 327 1.0
e 304 352 1.0
e 304 464 1.0
e 304 83 1.0
e 304 216 16.0
e 305 471 1.0
e 305 58 1.0
e 305 147 24.0
e 305 29 38.0
e 306 411 42.0
e 306 32 1.0
e 306 215 2.0
e 306 582 1.0
e 307 244 1.0
e 307 308 1.0
e 307 422 2.0
e 307 525 1.0
e 308 200 1.0
e 308 93 16.0
e 308 465 1.0
e 308 74 1.0
e 309 333 1.0
e 309 71 1.0
e 309 150 1.0
e 309 117 13.0
e 310 299 1.0
e 310 147 29.0
e 310 126 13.0
e 310 11 1.0
e 311 261 1.0
e 311 599 2.0
e 311 199 1.0
e 311 411 36.0
e 312 549 33.0
e 312 241 1.0
e 312 82 49.0
e 312 346 1.0
e 313 438 1.0
e 313 251 1.0
e 313 35 1.0
e 313 383 1.0
e 314 613 1.0
e 314 102 1.0
e 314 332 1.0
e 314 94 6.0
e 315 555 1.0
e 315 124 1.0
e 315 182 2.0
e 315 228 31.0
e 316 620 45.0
e 316 195 40.0
e 316 556 42.0
e 316 615 24.0
e 317 606 12.0
e 317 591 12.0
e 317 539 15.0
e 317 107 5.0
e 318 286 21.0
e 318 254 40.0
e 318 565 25.0
e 318 459 3.0
e 319 147 29.0
e 319 401 1.0
e 319 349 1.0
e 319 254 1.0
e 320 557 1.0
e 320 466 1.0
e 320 1 1.0
e 320 138 1.0
e 321 249 20.0
e 321 377 8.0
e 321 383 26.0
e 321 288 48.0
e 322 100 1.0
e 322 310 1.0
e 322 264 1.0
e 322 81 1.0
e 323 410 3.0
e 323 597 3.0
e 323 575 1.0
e 323 508 1.0
e 324 461 1.0
e 324 197 28.0
e 324 518 1.0
e 324 577 2.0
e 325 623 1.0
e 325 45 1.0
e 325 443 1.0
e 325 502 49.0
e 326 55 1.0
e 326 427 1.0
e 326 141 1.0
e 326 14 1.0
e 327 404 1.0
e 327 194 2.0
e 327 631 1.0
e 327 272 1.0
e 328 477 1.0
e 328 534 40.0
e 328 183 1.0
e 328 12 1.0
e 329 161 1.0
e 329 307 1.0
e 329 112 1.0
e 329 217 1.0
e 330 182 2.0
e 330 191 1.0
e 330 560 1.0
e 330 94 40.0
e 331 479 5.0
e 331 473 25.0
e 331 9 40.0
e 331 584 9.0
e 332 517 3.0
e 332 263 2.0
e 332 622 2.0
e 332 121 1.0
e 333 243 1.0
e 333 251 1.0
e 333 385 12.0
e 333 255 1.0
e 334 601 27.0
e 334 564 20.0
e 334 386 1.0
e 334 324 1.0
e 335 453 42.0
e 335 183 4.0
e 335 214 40.0
e 335 79 5.0
e 336 334 1.0
e 336 328 2.0
e 336 279 2.0
e 336 55 1.0
e 337 191 1.0
e 337 406 1.0
e 337 186 1.0
e 337 136 1.0
e 338 391 1.0
e 338 31 1.0
e 338 226 1.0
e 339 99 1.0
e 339 453 10.0
e 339 625 14.0
e 339 392 1.0
e 340 147 31.0
e 340 593 1.0
e 340 330 1.0
e 340 509 1.0
e 341 296 2.0
e 341 430 2.0
e 341 5 1.0
e 341 506 1.0
e 342 86 1.0
e 342 51 2.0
e 342 400 2.0
e 342 279 1.0
e 343 302 45.0
e 343 79 24.0
e 343 423 1.0
e 343 517 1.0
e 344 467 38.0
e 344 266 49.0
e 344 309 15.0
e 344 24 49.0
e 345 626 1.0
e 345 426 1.0
e 345 367 1.0
e 345 269 1.0
e 346 105 1.0
e 346 43 1.0
e 346 16 1.0
e 346 455 39.0
e 347 469 2.0
e 347 561 2.0
e 347 346 2.0
e 347 117 45.0
e 348 567 1.0
e 348 54 40.0
e 348 633 28.0
e 348 267 9.0
e 349 65 1.0
e 349 105 1.0
e 349 92 1.0
e 349 363 1.0
e 350 257 1.0
e 350 573 1.0
e 350 449 1.0
e 350 176 1.0
e 351 51 1.0
e 351 529 1.0
e 351 319 1.0
e 351 365 11.0
e 352 558 29.0
e 352 112 1.0
e 352 580 46.0
e 352 298 27.0
e 353 433 1.0
e 353 428 1.0
e 353 372 2.0
e 353 147 38.0
e 354 44 11.0
e 354 615 22.0
e 354 249 9.0
e 354 349 12.0
e 355 41 1.0
e 355 499 37.0
e 355 159 1.0
e 355 423 1.0
e 356 126 23.0
e 356 339 44.0
e 356 59 24.0
e 356 521 38.0
e 357 407 39.0
e 357 473 1.0
e 357 5 1.0
e 357 630 1.0
e 358 60 1.0
e 358 84 1.0
e 358 194 1.0
e 358 24 1.0
e 359 68 1.0
e 359 252 49.0
e 359 301 1.0
e 359 228 32.0
e 360 245 26.0
e 360 398 22.0
e 360 306 9.0
e 360 409 29.0
e 361 139 28.0
e 361 188 31.0
e 361 523 7.0
e 361 39 22.0
e 362 459 30.0
e 362 353 2.0
e 362 316 33.0
e 362 400 22.0
e 363 543 1.0
e 363 262 1.0
e 363 434 1.0
e 363 464 1.0
e 364 570 33.0
e 364 499 28.0
e 364 141 8.0
e 364 414 26.0
e 365 231 19.0
e 365 236 44.0
e 365 591 18.0
e 365 437 8.0
e 366 367 1.0
e 366 284 1.0
e 366 491 1.0
e 366 213 20.0
e 367 395 1.0
e 367 176 1.0
e 367 493 1.0
e 367 101 1.0
e 368 476 1.0
e 368 342 1.0
e 368 14 1.0
e 368 616 10.0
e 369 55 2.0
e 369 82 7.0
e 369 517 1.0
e 369 32 2.0
e 370 211 45.0
e 370 209 40.0
e 370 377 1.0
e 370 165 2.0
e 371 87 7.0
e 371 634 9.0
e 371 601 11.0
e 371 338 9.0
e 372 74 2.0
e 372 377 1.0
e 372 336 2.0
e 372 418 1.0
e 373 624 25.0
e 373 594 13.0
e 373 116 33.0
e 373 366 24.0
e 374 553 1.0
e 374 131 1.0
e 374 539 1.0
e 374 176 1.0
e 375 476 1.0
e 375 531 2.0
e 375 577 1.0
e 375 462 1.0
e 376 150 1.0
e 376 458 6.0
e 376 363 2.0
e 376 332 2.0
e 377 592 1.0
e 377 179 6.0
e 377 45 1.0
e 377 402 1.0
e 378 477 31.0
e 378 199 29.0
e 378 635 45.0
e 378 504 6.0
e 379 552 15.0
e 379 26 1.0
e 379 93 24.0
e 379 311 1.0
e 380 551 2.0
e 380 631 2.0
e 380 144 1.0
e 380 204 1.0
e 381 41 1.0
e 381 393 1.0
e 381 638 30.0
e 381 109 1.0
e 382 529 1.0
e 382 45 1.0
e 382 614 5.0
e 382 509 1.0
e 383 377 1.0
e 383 115 48.0
e 383 526 2.0
e 383 132 8.0
e 384 71 2.0
e 384 572 1.0
e 384 187 30.0
e 384 507 1.0
e 385 489 40.0
e 385 179 29.0
e 385 540 19.0
e 385 82 19.0
e 386 129 40.0
e 386 22 1.0
e 386 621 1.0
e 386 602 23.0
e 387 512 1.0
e 387 322 1.0
e 387 291 1.0
e 387 568 2.0
e 388 186 2.0
e 388 330 1.0
e 388 347 2.0
e 388 112 1.0
e 389 346 47.0
e 389 350 22.0
e 389 341 3.0
e 389 77 40.0
e 390 96 22.0
e 390 547 49.0
e 390 245 17.0
e 390 516 7.0
e 391 53 1.0
e 391 283 1.0
e 391 502 6.0
e 391 145 1.0
e 392 632 1.0
e 392 70 1.0
e 392 83 1.0
e 392 118 36.0
e 393 507 1.0
e 393 16 1.0
e 393 400 1.0
e 393 352 1.0
e 394 308 1.0
e 394 327 1.0
e 394 47 24.0
e 394 467 43.0
e 395 153 1.0
e 395 574 1.0
e 395 320 1.0
e 395 471 1.0
e 396 413 13.0
e 396 365 23.0
e 396 31 20.0
e 396 374 7.0
e 397 88 1.0
e 397 636 1.0
e 397 340 2.0
e 397 189 1.0
e 398 386 1.0
e 398 72 19.0
e 398 506 2.0
e 398 134 37.0
e 399 208 11.0
e 399 438 1.0
e 399 563 24.0
e 399 453 21.0
e 400 337 2.0
e 400 121 2.0
e 400 476 2.0
e 400 5 1.0
e 401 362 2.0
e 401 313 1.0
e 401 352 1.0
e 401 237 27.0
e 402 115 41.0
e 402 49 1.0
e 402 218 2.0
e 402 595 2.0
e 403 584 47.0
e 403 624 1.0
e 403 158 1.0
e 403 614 29.0
e 404 600 1.0
e 404 140 1.0
e 404 586 2.0
e 404 107 1.0
e 405 261 1.0
e 405 401 1.0
e 405 190 1.0
e 405 591 1.0
e 406 247 7.0
e 406 373 14.0
e 406 21 1.0
e 406 207 43.0
e 407 92 31.0
e 407 428 10.0
e 407 533 27.0
e 407 445 22.0
e 408 101 1.0
e 408 467 40.0
e 408 382 2.0
e 408 259 10.0
e 409 237 7.0
e 409 112 1.0
e 409 383 1.0
e 409 135 1.0
e 410 45 1.0
e 410 423 1.0
e 410 332 2.0
e 410 340 1.0
e 411 533 48.0
e 411 415 2.0
e 411 334 33.0
e 411 24 31.0
e 412 502 9.0
e 412 261 35.0
e 412 280 20.0
e 412 636 47.0
e 413 406 12.0
e 413 345 20.0
e 413 552 42.0
e 413 484 21.0
e 414 274 34.0
e 414 60 1.0
e 414 112 1.0
e 414 462 1.0
e 415 7 22.0
e 415 107 1.0
e 415 46 1.0
e 415 253 1.0
e 416 352 42.0
e 416 558 7.0
e 416 341 4.0
e 416 475 40.0
e 417 359 2.0
e 417 308 1.0
e 417 431 25.0
e 417 530 1.0
e 418 368 1.0
e 418 417 1.0
e 418 193 1.0
e 418 480 1.0
e 419 500 1.0
e 419 386 1.0
e 419 351 1.0
e 419 250 1.0
e 420 333 1.0
e 420 203 6.0
e 420 81 1.0
e 421 446 23.0
e 421 561 3.0
e 421 49 36.0
e 421 150 9.0
e 422 347 1.0
e 422 277 1.0
e 422 456 15.0
e 422 600 1.0
e 423 8 1.0
e 423 424 1.0
e 423 38 34.0
e 423 386 1.0
e 424 174 2.0
e 424 273 33.0
e 424 278 1.0
e 424 514 2.0
e 425 312 1.0
e 425 339 1.0
e 425 17 1.0
e 425 455 25.0
e 426 219 1.0
e 426 23 1.0
e 426 278 2.0
e 426 303 49.0
e 427 272 2.0
e 427 471 1.0
e 427 556 1.0
e 427 217 31.0
e 428 443 2.0
e 428 377 1.0
e 428 409 1.0
e 428 500 2.0
e 429 70 1.0
e 429 329 2.0
e 429 553 2.0
e 429 355 2.0
e 430 590 1.0
e 430 263 2.0
e 430 504 2.0
e 430 354 10.0
e 431 34 17.0
e 431 562 23.0
e 431 118 44.0
e 431 604 17.0
e 432 108 12.0
e 432 241 1.0
e 432 359 1.0
e 432 8 1.0
e 433 531 1.0
e 433 299 1.0
e 433 565 1.0
e 433 248 1.0
e 434 590 2.0
e 434 257 1.0
e 434 177 1.0
e 434 247 31.0
e 435 415 1.0
e 435 182 1.0
e 435 527 1.0
e 435 179 31.0
e 436 451 42.0
e 436 187 29.0
e 436 581 5.0
e 436 190 10.0
e 437 473 39.0
e 437 215 30.0
e 437 635 34.0
e 437 486 23.0
e 438 137 2.0
e 438 209 44.0
e 438 372 1.0
e 438 195 1.0
e 439 437 4.0
e 439 368 1.0
e 439 485 1.0
e 439 496 1.0
e 440 332 1.0
e 440 24 2.0
e 440 155 1.0
e 440 380 1.0
e 441 608 1.0
e 441 519 2.0
e 441 254 1.0
e 441 317 31.0
e 442 360 34.0
e 442 256 43.0
e 442 502 48.0
e 442 342 1.0
e 443 439 1.0
e 443 39 1.0
e 443 199 1.0
e 443 239 1.0
e 444 618 1.0
e 444 575 1.0
e 444 580 24.0
e 444 351 1.0
e 445 361 28.0
e 445 1 1.0
e 445 7 24.0
e 445 178 1.0
e 446 428 1.0
e 446 291 1.0
e 446 629 1.0
e 446 473 1.0
e 447 551 3.0
e 447 191 43.0
e 447 100 41.0
e 447 120 38.0
e 448 591 1.0
e 448 354 39.0
e 448 425 1.0
e 448 419 1.0
e 449 144 1.0
e 449 625 38.0
e 449 57 1.0
e 449 195 2.0
e 450 149 1.0
e 450 393 1.0
e 450 528 1.0
e 450 461 1.0
e 451 460 1.0
e 451 58 1.0
e 451 590 1.0
e 451 49 1.0
e 452 293 1.0
e 452 276 26.0
e 452 127 1.0
e 453 110 36.0
e 453 433 5.0
e 453 397 9.0
e 454 446 37.0
e 454 344 5.0
e 454 14 6.0
e 454 548 6.0
e 455 228 39.0
e 455 78 3.0
e 455 404 21.0
e 455 337 34.0
e 456 322 13.0
e 456 566 29.0
e 456 15 4.0
e 457 63 1.0
e 457 545 46.0
e 457 31 1.0
e 457 65 1.0
e 458 493 14.0
e 458 196 41.0
e 458 125 9.0
e 458 575 44.0
e 459 6 1.0
e 459 510 1.0
e 459 65 1.0
e 459 197 9.0
e 460 362 8.0
e 460 478 1.0
e 460 463 1.0
e 460 621 2.0
e 461 442 1.0
e 461 498 47.0
e 461 286 1.0
e 461 80 1.0
e 462 607 1.0
e 462 455 23.0
e 462 360 23.0
e 462 23 1.0
e 463 137 1.0
e 463 310 2.0
e 463 263 2.0
e 463 472 31.0
e 464 504 1.0
e 464 360 36.0
e 464 510 1.0
e 464 98 3.0
e 465 546 20.0
e 465 80 1.0
e 465 30 15.0
e 465 307 1.0
e 466 353 1.0
e 466 291 1.0
e 466 61 1.0
e 466 438 1.0
e 467 497 44.0
e 467 279 8.0
e 467 610 44.0
e 467 107 4.0
e 468 283 7.0
e 468 371 19.0
e 468 35 35.0
e 468 434 3.0
e 469 1 1.0
e 469 494 1.0
e 469 542 1.0
e 469 540 2.0
e 470 233 12.0
e 470 556 11.0
e 470 586 17.0
e 470 502 48.0
e 471 100 1.0
e 471 190 1.0
e 471 306 2.0
e 471 143 1.0
e 472 168 10.0
e 472 250 18.0
e 472 202 18.0
e 472 433 1.0
e 473 51 1.0
e 473 325 1.0
e 473 83 1.0
e 473 409 1.0
e 474 168 9.0
e 474 605 37.0
e 474 35 44.0
e 474 107 4.0
e 475 485 1.0
e 475 48 1.0
e 475 45 1.0
e 475 5 1.0
e 476 172 1.0
e 476 45 1.0
e 476 288 1.0
e 476 589 1.0
e 477 251 1.0
e 477 30 23.0
e 477 44 1.0
e 477 489 6.0
e 478 17 1.0
e 478 177 1.0
e 478 606 1.0
e 478 486 44.0
e 479 462 1.0
e 479 580 47.0
e 479 137 1.0
e 479 451 1.0
e 480 571 1.0
e 480 599 2.0
e 480 635 20.0
e 480 277 2.0
e 481 12 1.0
e 481 528 1.0
e 481 458 47.0
e 481 503 1.0
e 482 29 6.0
e 482 360 18.0
e 482 433 1.0
e 482 510 1.0
e 483 163 1.0
e 483 562 1.0
e 483 310 1.0
e 483 166 17.0
e 484 337 2.0
e 484 181 3.0
e 484 62 1.0
e 484 439 1.0
e 485 626 1.0
e 485 468 31.0
e 485 476 1.0
e 485 109 2.0
e 486 539 45.0
e 486 411 29.0
e 486 182 24.0
e 486 543 41.0
e 487 236 1.0
e 487 573 1.0
e 487 541 1.0
e 487 373 17.0
e 488 259 1.0
e 488 530 1.0
e 488 140 1.0
e 488 165 3.0
e 489 452 11.0
e 489 363 9.0
e 489 83 35.0
e 489 217 21.0
e 490 17 2.0
e 490 116 2.0
e 490 367 1.0
e 490 520 1.0
e 491 592 1.0
e 491 179 34.0
e 491 260 1.0
e 491 84 1.0
e 492 348 1.0
e 492 81 1.0
e 492 18 1.0
e 492 555 1.0
e 493 283 12.0
e 493 373 12.0
e 493 589 1.0
e 493 215 1.0
e 494 366 1.0
e 494 103 2.0
e 494 498 26.0
e 494 62 1.0
e 495 283 16.0
e 495 36 2.0
e 495 183 1.0
e 495 476 1.0
e 496 156 1.0
e 496 263 2.0
e 496 398 1.0
e 496 397 1.0
e 497 198 38.0
e 497 175 23.0
e 497 346 46.0
e 497 259 5.0
e 498 248 9.0
e 498 312 33.0
e 498 548 2.0
e 498 79 35.0
e 499 571 12.0
e 499 338 14.0
e 499 157 29.0
e 499 204 7.0
e 500 131 1.0
e 500 44 1.0
e 500 527 1.0
e 500 156 1.0
e 501 374 25.0
e 501 595 23.0
e 501 453 39.0
e 501 21 43.0
e 502 17 48.0
e 502 496 5.0
e 502 510 30.0
e 502 265 40.0
e 503 104 2.0
e 503 624 1.0
e 503 633 30.0
e 503 339 1.0
e 504 498 28.0
e 504 29 12.0
e 504 350 1.0
e 504 317 44.0
e 505 318 17.0
e 505 473 1.0
e 505 342 1.0
e 505 421 37.0
e 506 33 1.0
e 506 135 3.0
e 506 39 1.0
e 507 80 1.0
e 507 258 7.0
e 507 212 1.0
e 507 238 1.0
e 508 592 1.0
e 508 622 2.0
e 508 236 1.0
e 508 3 1.0
e 509 493 1.0
e 509 557 1.0
e 509 520 1.0
e 509 461 1.0
e 510 68 1.0
e 510 480 1.0
e 510 599 1.0
e 510 627 1.0
e 511 551 1.0
e 511 216 25.0
e 511 115 1.0
e 511 332 2.0
e 512 172 1.0
e 512 144 2.0
e 512 163 1.0
e 512 145 1.0
e 513 111 29.0
e 513 575 23.0
e 513 31 37.0
e 513 77 1.0
e 514 381 1.0
e 514 143 1.0
e 514 92 1.0
e 514 511 1.0
e 515 91 1.0
e 515 212 2.0
e 515 262 1.0
e 515 433 2.0
e 516 622 2.0
e 516 189 1.0
e 516 147 19.0
e 516 283 3.0
e 517 262 1.0
e 517 366 1.0
e 517 581 1.0
e 517 319 1.0
e 518 411 34.0
e 518 183 1.0
e 518 127 1.0
e 518 219 1.0
e 519 181 2.0
e 519 635 34.0
e 519 271 1.0
e 519 56 1.0
e 520 375 2.0
e 520 524 2.0
e 520 176 1.0
e 520 523 1.0
e 521 193 1.0
e 521 343 1.0
e 521 267 42.0
e 521 578 25.0
e 522 351 1.0
e 522 133 33.0
e 522 188 1.0
e 522 630 1.0
e 523 607 1.0
e 523 289 1.0
e 523 630 1.0
e 523 258 10.0
e 524 120 1.0
e 524 384 1.0
e 524 284 1.0
e 525 586 1.0
e 525 378 47.0
e 525 326 2.0
e 525 51 1.0
e 526 452 1.0
e 526 265 2.0
e 526 633 37.0
e 526 37 1.0
e 527 229 1.0
e 527 105 1.0
e 527 116 1.0
e 527 559 1.0
e 528 257 2.0
e 528 338 1.0
e 528 256 45.0
e 528 3 1.0
e 529 312 2.0
e 529 468 1.0
e 529 192 2.0
e 529 346 1.0
e 530 526 1.0
e 530 416 21.0
e 530 203 23.0
e 530 443 1.0
e 531 488 1.0
e 531 267 13.0
e 531 220 1.0
e 531 351 1.0
e 532 156 1.0
e 532 616 27.0
e 532 433 1.0
e 533 139 1.0
e 533 355 1.0
e 533 195 1.0
e 533 394 1.0
e 534 392 46.0
e 534 388 15.0
e 534 399 23.0
e 534 446 37.0
e 535 262 20.0
e 535 47 39.0
e 535 591 2.0
e 535 30 11.0
e 536 219 1.0
e 536 390 9.0
e 536 163 1.0
e 536 349 1.0
e 537 92 33.0
e 537 549 33.0
e 537 528 13.0
e 537 363 19.0
e 538 209 3.0
e 538 558 42.0
e 538 25 1.0
e 538 35 1.0
e 539 324 2.0
e 539 65 1.0
e 539 394 1.0
e 539 138 1.0
e 540 291 1.0
e 540 604 2.0
e 540 391 2.0
e 540 597 1.0
e 541 281 1.0
e 541 315 1.0
e 541 134 23.0
e 541 394 1.0
e 542 474 31.0
e 542 252 40.0
e 542 6 1.0
e 542 111 36.0
e 543 397 1.0
e 543 578 6.0
e 543 359 1.0
e 543 618 1.0
e 544 99 1.0
e 544 477 1.0
e 544 539 1.0
e 544 157 1.0
e 545 454 13.0
e 545 104 4.0
e 545 419 29.0
e 545 136 8.0
e 546 217 16.0
e 546 163 10.0
e 546 390 15.0
e 547 411 45.0
e 547 148 1.0
e 547 344 22.0
e 547 253 1.0
e 548 242 1.0
e 548 260 1.0
e 548 447 28.0
e 548 227 1.0
e 549 401 21.0
e 549 39 16.0
e 549 56 23.0
e 549 577 3.0
e 550 507 3.0
e 550 403 1.0
e 550 589 2.0
e 550 545 39.0
e 551 611 2.0
e 551 570 39.0
e 551 339 1.0
e 551 210 1.0
e 552 190 24.0
e 552 321 47.0
e 552 76 2.0
e 552 532 46.0
e 553 596 1.0
e 553 382 1.0
e 553 287 42.0
e 553 266 22.0
e 554 133 16.0
e 554 266 36.0
e 554 58 1.0
e 554 222 14.0
e 555 339 2.0
e 555 602 24.0
e 555 15 1.0
e 555 191 1.0
e 556 289 1.0
e 556 105 1.0
e 556 608 1.0
e 556 40 1.0
e 557 352 1.0
e 557 546 21.0
e 557 609 43.0
e 557 577 1.0
e 558 524 47.0
e 558 362 30.0
e 558 476 47.0
e 558 496 19.0
e 559 93 25.0
e 559 243 1.0
e 559 468 42.0
e 559 123 1.0
e 560 602 25.0
e 560 248 1.0
e 560 367 1.0
e 560 57 1.0
e 561 185 1.0
e 561 167 13.0
e 561 142 1.0
e 561 145 1.0
e 562 367 1.0
e 562 19 1.0
e 562 499 14.0
e 562 135 1.0
e 563 560 26.0
e 563 222 21.0
e 563 42 9.0
e 563 16 4.0
e 564 551 7.0
e 564 457 12.0
e 564 594 1.0
e 564 266 21.0
e 565 635 20.0
e 565 205 1.0
e 565 447 47.0
e 565 333 1.0
e 566 194 14.0
e 566 310 26.0
e 566 532 2.0
e 566 168 14.0
e 567 238 1.0
e 567 535 25.0
e 567 225 1.0
e 567 606 1.0
e 568 137 1.0
e 568 528 1.0
e 568 447 9.0
e 568 8 1.0
e 569 409 1.0
e 569 450 1.0
e 569 251 1.0
e 569 48 1.0
e 570 405 2.0
e 570 126 8.0
e 570 355 36.0
e 570 108 17.0
e 571 10 1.0
e 571 225 1.0
e 571 166 32.0
e 571 212 1.0
e 572 596 1.0
e 572 630 1.0
e 572 103 1.0
e 572 196 42.0
e 573 155 1.0
e 573 165 1.0
e 573 419 3.0
e 573 378 26.0
e 574 139 1.0
e 574 567 1.0
e 574 56 1.0
e 574 43 41.0
e 575 604 1.0
e 575 62 1.0
e 575 185 2.0
e 575 423 1.0
e 576 416 18.0
e 576 130 1.0
e 576 358 1.0
e 576 381 2.0
e 577 263 1.0
e 577 305 1.0
e 577 211 26.0
e 577 613 1.0
e 578 247 6.0
e 578 115 4.0
e 578 339 42.0
e 578 113 5.0
e 579 535 38.0
e 579 501 47.0
e 579 118 38.0
e 579 196 7.0
e 580 413 33.0
e 580 169 30.0
e 580 586 24.0
e 580 299 16.0
e 581 222 31.0
e 581 248 1.0
e 581 114 16.0
e 581 266 26.0
e 582 158 2.0
e 582 45 3.0
e 582 506 1.0
e 583 553 2.0
e 583 302 2.0
e 583 36 1.0
e 583 27 1.0
e 584 612 11.0
e 584 345 40.0
e 584 418 1.0
e 584 329 40.0
e 585 380 36.0
e 585 227 39.0
e 585 460 14.0
e 585 317 45.0
e 586 320 1.0
e 586 187 10.0
e 586 326 1.0
e 586 279 1.0
e 587 63 40.0
e 587 445 21.0
e 587 61 34.0
e 587 328 35.0
e 588 593 1.0
e 588 137 3.0
e 588 250 1.0
e 588 569 2.0
e 589 537 8.0
e 589 203 39.0
e 589 584 31.0
e 589 469 1.0
e 590 25 1.0
e 590 298 38.0
e 590 58 2.0
e 590 332 1.0
e 591 184 24.0
e 591 407 6.0
e 591 362 25.0
e 591 226 1.0
e 592 472 49.0
e 592 495 1.0
e 592 160 1.0
e 592 594 1.0
e 593 278 2.0
e 593 20 15.0
e 593 580 29.0
e 593 460 1.0
e 594 506 3.0
e 594 264 1.0
e 594 135 1.0
e 594 329 1.0
e 595 509 2.0
e 595 624 1.0
e 595 627 1.0
e 595 571 2.0
e 596 125 1.0
e 596 475 1.0
e 596 434 1.0
e 596 540 1.0
e 597 185 2.0
e 597 373 20.0
e 597 12 2.0
e 597 73 2.0
e 598 208 34.0
e 598 51 2.0
e 598 245 1.0
e 598 469 1.0
e 599 139 1.0
e 599 368 1.0
e 599 492 2.0
e 599 17 2.0
e 600 584 21.0
e 600 14 1.0
e 600 483 1.0
e 600 115 37.0
e 601 130 49.0
e 601 522 34.0
e 601 321 15.0
e 601 53 28.0
e 602 304 6.0
e 602 194 5.0
e 602 455 21.0
e 602 626 7.0
e 603 462 14.0
e 603 488 8.0
e 603 331 47.0
e 603 397 1.0
e 604 467 15.0
e 604 480 2.0
e 604 95 1.0
e 604 26 1.0
e 605 549 31.0
e 605 598 1.0
e 605 478 1.0
e 606 578 46.0
e 606 500 1.0
e 606 608 1.0
e 606 212 1.0
e 607 353 1.0
e 607 167 14.0
e 607 299 2.0
e 607 228 11.0
e 608 450 1.0
e 608 341 1.0
e 608 322 1.0
e 608 33 1.0
e 609 451 17.0
e 609 385 18.0
e 609 407 7.0
e 609 36 20.0
e 610 402 1.0
e 610 435 1.0
e 610 165 2.0
e 610 454 6.0
e 611 516 1.0
e 611 106 26.0
e 611 370 2.0
e 611 243 2.0
e 612 189 2.0
e 612 267 36.0
e 612 240 2.0
e 612 463 2.0
e 613 152 15.0
e 613 165 2.0
e 613 333 1.0
e 613 509 1.0
e 614 6 32.0
e 614 429 3.0
e 614 88 12.0
e 614 141 38.0
e 615 77 5.0
e 615 104 49.0
e 615 437 35.0
e 616 603 8.0
e 616 312 36.0
e 616 140 45.0
e 616 203 8.0
e 617 106 7.0
e 617 149 1.0
e 617 453 35.0
e 617 208 32.0
e 618 587 22.0
e 618 638 9.0
e 618 8 1.0
e 618 40 3.0
e 619 410 2.0
e 619 178 1.0
e 619 294 3.0
e 619 633 38.0
e 620 22 1.0
e 620 204 2.0
e 620 532 1.0
e 620 306 1.0
e 621 459 1.0
e 621 173 2.0
e 621 613 1.0
e 621 545 8.0
e 622 105 2.0
e 622 404 2.0
e 622 470 22.0
e 622 181 3.0
e 623 41 2.0
e 623 102 1.0
e 623 215 1.0
e 623 242 1.0
e 624 316 22.0
e 624 180 34.0
e 624 211 48.0
e 624 556 1.0
e 625 634 4.0
e 625 274 8.0
e 625 444 32.0
e 625 190 14.0
e 626 33 1.0
e 626 192 1.0
e 626 584 11.0
e 626 283 17.0
e 627 344 36.0
e 627 229 1.0
e 627 213 32.0
e 627 163 1.0
e 628 373 25.0
e 628 157 48.0
e 628 398 8.0
e 628 222 10.0
e 629 192 1.0
e 629 375 2.0
e 629 533 1.0
e 629 80 1.0
e 630 180 11.0
e 630 69 1.0
e 630 239 1.0
e 630 398 1.0
e 631 316 8.0
e 631 305 1.0
e 631 253 1.0
e 631 495 1.0
e 632 531 1.0
e 632 245 1.0
e 632 31 2.0
e 632 494 2.0
e 633 280 3.0
e 633 418 30.0
e 633 118 35.0
e 633 389 10.0
e 634 37 1.0
e 634 550 1.0
e 634 591 1.0
e 634 544 1.0
e 635 338 31.0
e 635 300 17.0
e 635 126 37.0
e 635 118 9.0
e 636 516 1.0
e 636 387 1.0
e 636 259 3.0
e 636 375 1.0
e 637 527 19.0
e 637 598 5.0
e 637 221 40.0
e 637 133 32.0
e 638 221 47.0
e 638 335 29.0
e 638 279 8.0
e 638 588 46.0
e 639 222 13.0
e 639 623 1.0
e 639 453 44.0
e 639 480 1.0
